param n := 60;
param c := 3000
param : V : p w :=
   0	 495	 485
   1	 266	 256
   2	 269	 259
   3	 501	 491
   4	 261	 251
   5	 268	 258
   6	 363	 353
   7	 322	 312
   8	 345	 335
   9	 508	 498
  10	 260	 250
  11	 262	 252
  12	 371	 361
  13	 303	 293
  14	 356	 346
  15	 388	 378
  16	 262	 252
  17	 380	 370
  18	 461	 451
  19	 266	 256
  20	 303	 293
  21	 449	 439
  22	 279	 269
  23	 302	 292
  24	 463	 453
  25	 273	 263
  26	 294	 284
  27	 408	 398
  28	 269	 259
  29	 353	 343
  30	 401	 391
  31	 265	 255
  32	 364	 354
  33	 472	 462
  34	 262	 252
  35	 296	 286
  36	 373	 363
  37	 264	 254
  38	 393	 383
  39	 391	 381
  40	 288	 278
  41	 351	 341
  42	 464	 454
  43	 261	 251
  44	 305	 295
  45	 366	 356
  46	 293	 283
  47	 371	 361
  48	 463	 453
  49	 282	 272
  50	 285	 275
  51	 367	 357
  52	 285	 275
  53	 378	 368
  54	 478	 468
  55	 260	 250
  56	 292	 282
  57	 362	 352
  58	 290	 280
  59	 378	 368
;

set E :=
   0	   5
   0	   6
   0	  10
   0	  11
   0	  12
   0	  13
   0	  16
   0	  17
   0	  18
   0	  19
   0	  20
   0	  23
   0	  24
   0	  25
   0	  26
   0	  29
   0	  31
   0	  32
   0	  35
   0	  40
   0	  42
   0	  44
   0	  45
   0	  46
   0	  47
   0	  49
   0	  50
   0	  51
   0	  55
   0	  57
   0	  58
   1	   4
   1	   5
   1	   6
   1	   7
   1	   8
   1	  10
   1	  11
   1	  12
   1	  14
   1	  16
   1	  18
   1	  20
   1	  21
   1	  22
   1	  23
   1	  24
   1	  25
   1	  26
   1	  28
   1	  29
   1	  31
   1	  33
   1	  34
   1	  35
   1	  36
   1	  38
   1	  39
   1	  40
   1	  43
   1	  46
   1	  50
   1	  53
   1	  56
   1	  57
   1	  58
   1	  59
   2	   4
   2	   7
   2	   9
   2	  11
   2	  14
   2	  15
   2	  16
   2	  17
   2	  18
   2	  20
   2	  23
   2	  26
   2	  27
   2	  29
   2	  30
   2	  32
   2	  35
   2	  36
   2	  40
   2	  41
   2	  42
   2	  43
   2	  44
   2	  46
   2	  48
   2	  49
   2	  54
   2	  56
   2	  58
   2	  59
   3	   4
   3	   8
   3	   9
   3	  10
   3	  11
   3	  12
   3	  15
   3	  18
   3	  19
   3	  21
   3	  23
   3	  25
   3	  26
   3	  27
   3	  28
   3	  29
   3	  33
   3	  37
   3	  39
   3	  43
   3	  44
   3	  47
   3	  48
   3	  50
   3	  51
   3	  52
   3	  53
   3	  55
   3	  57
   4	   8
   4	   9
   4	  11
   4	  13
   4	  14
   4	  16
   4	  19
   4	  24
   4	  29
   4	  30
   4	  31
   4	  32
   4	  35
   4	  37
   4	  40
   4	  41
   4	  42
   4	  44
   4	  45
   4	  46
   4	  49
   4	  50
   4	  51
   4	  54
   4	  56
   4	  57
   4	  58
   5	   6
   5	   8
   5	   9
   5	  10
   5	  11
   5	  12
   5	  13
   5	  15
   5	  16
   5	  17
   5	  18
   5	  20
   5	  21
   5	  24
   5	  25
   5	  27
   5	  30
   5	  31
   5	  32
   5	  34
   5	  35
   5	  39
   5	  41
   5	  46
   5	  47
   5	  48
   5	  52
   5	  53
   5	  54
   5	  55
   6	   8
   6	   9
   6	  10
   6	  13
   6	  14
   6	  15
   6	  19
   6	  22
   6	  23
   6	  25
   6	  26
   6	  33
   6	  34
   6	  35
   6	  37
   6	  38
   6	  39
   6	  41
   6	  43
   6	  44
   6	  47
   6	  48
   6	  49
   6	  51
   6	  53
   6	  54
   6	  57
   6	  59
   7	   8
   7	   9
   7	  13
   7	  14
   7	  18
   7	  19
   7	  22
   7	  24
   7	  25
   7	  26
   7	  29
   7	  32
   7	  34
   7	  36
   7	  37
   7	  41
   7	  42
   7	  43
   7	  49
   7	  50
   7	  52
   7	  53
   7	  55
   7	  57
   7	  59
   8	  10
   8	  12
   8	  14
   8	  16
   8	  17
   8	  19
   8	  20
   8	  21
   8	  22
   8	  25
   8	  26
   8	  27
   8	  28
   8	  29
   8	  30
   8	  31
   8	  33
   8	  37
   8	  39
   8	  41
   8	  45
   8	  46
   8	  48
   8	  50
   8	  51
   8	  52
   8	  56
   8	  57
   8	  58
   9	  11
   9	  12
   9	  13
   9	  14
   9	  15
   9	  16
   9	  17
   9	  20
   9	  21
   9	  24
   9	  25
   9	  27
   9	  28
   9	  29
   9	  30
   9	  35
   9	  36
   9	  39
   9	  41
   9	  43
   9	  50
   9	  55
   9	  56
   9	  58
  10	  14
  10	  15
  10	  18
  10	  19
  10	  20
  10	  21
  10	  22
  10	  23
  10	  27
  10	  29
  10	  33
  10	  35
  10	  36
  10	  40
  10	  44
  10	  46
  10	  48
  10	  49
  10	  51
  10	  52
  10	  55
  10	  57
  10	  58
  10	  59
  11	  13
  11	  14
  11	  15
  11	  16
  11	  17
  11	  19
  11	  23
  11	  24
  11	  25
  11	  26
  11	  27
  11	  30
  11	  31
  11	  33
  11	  34
  11	  36
  11	  37
  11	  38
  11	  39
  11	  43
  11	  46
  11	  49
  11	  50
  11	  59
  12	  14
  12	  16
  12	  19
  12	  20
  12	  21
  12	  23
  12	  25
  12	  28
  12	  29
  12	  32
  12	  34
  12	  35
  12	  36
  12	  37
  12	  38
  12	  39
  12	  40
  12	  42
  12	  43
  12	  45
  12	  48
  12	  51
  12	  54
  12	  55
  12	  58
  13	  16
  13	  19
  13	  20
  13	  23
  13	  25
  13	  26
  13	  27
  13	  29
  13	  30
  13	  31
  13	  32
  13	  34
  13	  41
  13	  48
  13	  51
  13	  53
  13	  55
  13	  57
  13	  59
  14	  16
  14	  20
  14	  21
  14	  24
  14	  26
  14	  28
  14	  31
  14	  33
  14	  35
  14	  37
  14	  39
  14	  42
  14	  43
  14	  46
  14	  47
  14	  48
  14	  52
  14	  53
  14	  54
  14	  55
  14	  56
  14	  57
  15	  16
  15	  17
  15	  18
  15	  19
  15	  21
  15	  22
  15	  23
  15	  24
  15	  25
  15	  30
  15	  34
  15	  37
  15	  40
  15	  42
  15	  44
  15	  45
  15	  46
  15	  48
  15	  49
  15	  50
  15	  52
  15	  53
  15	  54
  15	  55
  15	  57
  15	  58
  16	  17
  16	  18
  16	  22
  16	  23
  16	  27
  16	  31
  16	  33
  16	  34
  16	  36
  16	  40
  16	  41
  16	  43
  16	  44
  16	  46
  16	  47
  16	  48
  16	  49
  16	  50
  16	  57
  17	  18
  17	  20
  17	  26
  17	  27
  17	  28
  17	  29
  17	  30
  17	  31
  17	  34
  17	  35
  17	  36
  17	  37
  17	  39
  17	  40
  17	  41
  17	  45
  17	  46
  17	  47
  17	  49
  17	  50
  17	  53
  17	  55
  17	  56
  17	  57
  17	  58
  18	  19
  18	  21
  18	  22
  18	  23
  18	  24
  18	  25
  18	  26
  18	  27
  18	  30
  18	  32
  18	  33
  18	  34
  18	  40
  18	  43
  18	  47
  18	  50
  18	  51
  18	  52
  18	  54
  18	  55
  18	  57
  18	  59
  19	  21
  19	  24
  19	  26
  19	  27
  19	  29
  19	  30
  19	  32
  19	  35
  19	  39
  19	  41
  19	  42
  19	  43
  19	  44
  19	  47
  19	  48
  19	  52
  19	  54
  19	  55
  19	  56
  19	  57
  19	  58
  19	  59
  20	  22
  20	  24
  20	  25
  20	  32
  20	  33
  20	  35
  20	  38
  20	  40
  20	  41
  20	  42
  20	  44
  20	  46
  20	  47
  20	  48
  20	  52
  20	  53
  20	  54
  20	  59
  21	  22
  21	  23
  21	  25
  21	  33
  21	  35
  21	  36
  21	  37
  21	  39
  21	  42
  21	  43
  21	  44
  21	  45
  21	  46
  21	  47
  21	  49
  21	  50
  21	  51
  21	  53
  21	  55
  21	  57
  21	  58
  22	  25
  22	  31
  22	  33
  22	  37
  22	  39
  22	  43
  22	  44
  22	  46
  22	  47
  22	  51
  22	  53
  22	  54
  22	  55
  22	  56
  22	  58
  22	  59
  23	  25
  23	  26
  23	  28
  23	  29
  23	  34
  23	  35
  23	  36
  23	  40
  23	  41
  23	  43
  23	  45
  23	  48
  23	  52
  23	  53
  23	  54
  23	  55
  23	  57
  23	  58
  23	  59
  24	  27
  24	  29
  24	  31
  24	  34
  24	  35
  24	  38
  24	  39
  24	  45
  24	  49
  24	  51
  24	  52
  24	  53
  24	  55
  24	  56
  24	  57
  25	  26
  25	  27
  25	  31
  25	  32
  25	  33
  25	  35
  25	  36
  25	  37
  25	  41
  25	  42
  25	  45
  25	  48
  25	  49
  25	  50
  25	  51
  25	  52
  25	  53
  25	  56
  25	  59
  26	  27
  26	  32
  26	  36
  26	  37
  26	  38
  26	  42
  26	  44
  26	  45
  26	  47
  26	  48
  26	  54
  26	  57
  26	  58
  27	  28
  27	  29
  27	  31
  27	  32
  27	  33
  27	  35
  27	  36
  27	  37
  27	  39
  27	  41
  27	  44
  27	  46
  27	  50
  27	  51
  27	  52
  27	  55
  27	  56
  27	  57
  27	  58
  27	  59
  28	  29
  28	  33
  28	  41
  28	  42
  28	  43
  28	  44
  28	  47
  28	  48
  28	  49
  28	  51
  28	  52
  28	  56
  28	  57
  29	  31
  29	  32
  29	  34
  29	  37
  29	  38
  29	  40
  29	  41
  29	  42
  29	  43
  29	  44
  29	  51
  29	  53
  29	  54
  29	  55
  29	  58
  30	  31
  30	  32
  30	  33
  30	  35
  30	  37
  30	  39
  30	  41
  30	  42
  30	  43
  30	  49
  30	  52
  30	  57
  31	  33
  31	  34
  31	  40
  31	  41
  31	  42
  31	  43
  31	  47
  31	  48
  31	  49
  31	  54
  31	  59
  32	  34
  32	  37
  32	  39
  32	  40
  32	  41
  32	  42
  32	  43
  32	  44
  32	  45
  32	  46
  32	  47
  32	  49
  32	  50
  32	  52
  32	  57
  32	  58
  33	  37
  33	  38
  33	  41
  33	  43
  33	  44
  33	  45
  33	  50
  33	  53
  33	  58
  34	  38
  34	  39
  34	  42
  34	  43
  34	  46
  34	  50
  34	  54
  34	  56
  34	  58
  35	  36
  35	  37
  35	  38
  35	  39
  35	  40
  35	  41
  35	  43
  35	  44
  35	  46
  35	  47
  35	  49
  35	  52
  35	  55
  35	  58
  35	  59
  36	  39
  36	  42
  36	  43
  36	  44
  36	  46
  36	  48
  36	  49
  36	  50
  36	  57
  37	  38
  37	  40
  37	  41
  37	  43
  37	  44
  37	  45
  37	  50
  37	  52
  37	  53
  37	  54
  37	  55
  37	  56
  37	  58
  37	  59
  38	  39
  38	  41
  38	  42
  38	  43
  38	  46
  38	  47
  38	  49
  38	  50
  38	  52
  38	  53
  38	  55
  38	  59
  39	  40
  39	  43
  39	  44
  39	  45
  39	  47
  39	  49
  39	  50
  39	  56
  39	  57
  39	  58
  39	  59
  40	  42
  40	  43
  40	  44
  40	  45
  40	  47
  40	  49
  40	  50
  40	  51
  40	  53
  40	  55
  40	  56
  40	  57
  40	  58
  40	  59
  41	  42
  41	  45
  41	  46
  41	  50
  41	  56
  41	  57
  41	  58
  42	  46
  42	  47
  42	  48
  42	  49
  42	  50
  42	  51
  42	  53
  42	  54
  42	  56
  42	  57
  42	  58
  43	  45
  43	  48
  43	  49
  43	  54
  43	  55
  43	  56
  43	  57
  43	  58
  44	  46
  44	  52
  44	  53
  44	  54
  44	  55
  44	  56
  44	  58
  44	  59
  45	  49
  45	  50
  45	  51
  45	  58
  46	  47
  46	  48
  46	  49
  46	  52
  46	  53
  46	  54
  46	  57
  46	  58
  46	  59
  47	  48
  47	  53
  47	  54
  47	  55
  47	  58
  47	  59
  48	  51
  48	  54
  48	  57
  49	  50
  49	  51
  49	  52
  49	  57
  50	  51
  50	  56
  50	  57
  50	  59
  51	  52
  51	  54
  52	  54
  52	  55
  52	  56
  52	  58
  53	  57
  54	  55
  54	  57
  54	  58
  54	  59
  55	  56
  55	  57
  55	  59
  56	  57
  56	  58
  56	  59
  57	  59
;
